NAME : random_19
COMMENT : 60 random nodes
TYPE : TSP
DIMENSION : 60
EDGE_WEIGHT_TYPE : EUC_2D
NODE_COORD_SECTION
1 926 824
2 311 763
3 377 123
4 230 679
5 846 525
6 509 454
7 684 96
8 206 468
9 237 37
10 408 840
11 645 455
12 51 161
13 819 548
14 683 972
15 90 868
16 885 241
17 635 802
18 998 801
19 310 522
20 591 263
21 199 994
22 954 45
23 417 859
24 744 516
25 675 957
26 903 545
27 168 457
28 75 197
29 886 250
30 368 731
31 229 72
32 229 353
33 469 539
34 84 624
35 233 335
36 694 862
37 368 758
38 778 66
39 670 322
40 55 228
41 385 894
42 825 176
43 706 971
44 535 747
45 651 5
46 222 918
47 574 468
48 318 799
49 682 184
50 686 209
51 840 203
52 987 916
53 645 548
54 103 427
55 915 988
56 5 373
57 384 313
58 871 788
59 839 73
60 130 687
EOF